
/* PLEASE DO NOT EDIT THIS FILE */
/* Auto-generated by check_mapp.cpp for lp_solve */

/* ~~~~~~~~~~~~~~~~~~~~~~~~~~~~~~~~~~~~~~~~~~~~~~~~~~~~~~~~~~~~~~~~~~~~~~~~~~~~~~~~~~~~~~~~~ */
/* ~~~~~~~~~~~~~~~~~~~~~~~~ Hopcroft Karp Algorithm ILP formulation ~~~~~~~~~~~~~~~~~~~~~~~~ */
/* ~~~~~~~~~~~~~~~~~~~~~~~~~~~~~~~~~~~~~~~~~~~~~~~~~~~~~~~~~~~~~~~~~~~~~~~~~~~~~~~~~~~~~~~~~ */

min: mksp;

1553 x00000 + 6685 x00001 + 5237 x00002 + 7709 x00003 + 5462 x00004 + 6758 x00005 + 4861 x00006 + 9200 x00007 + 9806 x00008 + 2228 x00009 < mksp;

9099 x01000 + 8205 x01001 + 6922 x01002 + 5726 x01003 + 9291 x01004 + 7453 x01005 + 8897 x01006 + 4277 x01007 + 5158 x01008 + 5401 x01009 < mksp;

6332 x02000 + 5167 x02001 + 2472 x02002 + 7769 x02003 + 2368 x02004 + 1126 x02005 + 1063 x02006 + 6809 x02007 + 6004 x02008 + 7127 x02009 < mksp;

5864 x03000 + 7558 x03001 + 3813 x03002 + 1103 x03003 + 5269 x03004 + 9275 x03005 + 7862 x03006 + 132 x03007 + 8477 x03008 + 7669 x03009 < mksp;

2360 x04000 + 7577 x04001 + 5876 x04002 + 9282 x04003 + 3305 x04004 + 5168 x04005 + 6737 x04006 + 2203 x04007 + 9445 x04008 + 1897 x04009 < mksp;

7605 x05000 + 5779 x05001 + 7064 x05002 + 78 x05003 + 3549 x05004 + 9432 x05005 + 1204 x05006 + 4613 x05007 + 6243 x05008 + 7209 x05009 < mksp;

1741 x06000 + 2109 x06001 + 4768 x06002 + 5554 x06003 + 3213 x06004 + 39 x06005 + 4831 x06006 + 1076 x06007 + 171 x06008 + 3309 x06009 < mksp;

8746 x07000 + 2531 x07001 + 887 x07002 + 4623 x07003 + 1815 x07004 + 4192 x07005 + 9791 x07006 + 8553 x07007 + 6396 x07008 + 9238 x07009 < mksp;

451 x08000 + 4002 x08001 + 5018 x08002 + 7516 x08003 + 4080 x08004 + 8568 x08005 + 6950 x08006 + 5284 x08007 + 3182 x08008 + 3194 x08009 < mksp;

2494 x09000 + 4923 x09001 + 5304 x09002 + 7263 x09003 + 479 x09004 + 8517 x09005 + 7302 x09006 + 5310 x09007 + 9594 x09008 + 7474 x09009 < mksp;

x00000 + x01000 + x02000 + x03000 + x04000 + x05000 + x06000 + x07000 + x08000 + x09000 = 1;

x00001 + x01001 + x02001 + x03001 + x04001 + x05001 + x06001 + x07001 + x08001 + x09001 = 1;

x00002 + x01002 + x02002 + x03002 + x04002 + x05002 + x06002 + x07002 + x08002 + x09002 = 1;

x00003 + x01003 + x02003 + x03003 + x04003 + x05003 + x06003 + x07003 + x08003 + x09003 = 1;

x00004 + x01004 + x02004 + x03004 + x04004 + x05004 + x06004 + x07004 + x08004 + x09004 = 1;

x00005 + x01005 + x02005 + x03005 + x04005 + x05005 + x06005 + x07005 + x08005 + x09005 = 1;

x00006 + x01006 + x02006 + x03006 + x04006 + x05006 + x06006 + x07006 + x08006 + x09006 = 1;

x00007 + x01007 + x02007 + x03007 + x04007 + x05007 + x06007 + x07007 + x08007 + x09007 = 1;

x00008 + x01008 + x02008 + x03008 + x04008 + x05008 + x06008 + x07008 + x08008 + x09008 = 1;

x00009 + x01009 + x02009 + x03009 + x04009 + x05009 + x06009 + x07009 + x08009 + x09009 = 1;

x00000 + x00001 + x00002 + x00003 + x00004 + x00005 + x00006 + x00007 + x00008 + x00009 = 1;

x01000 + x01001 + x01002 + x01003 + x01004 + x01005 + x01006 + x01007 + x01008 + x01009 = 1;

x02000 + x02001 + x02002 + x02003 + x02004 + x02005 + x02006 + x02007 + x02008 + x02009 = 1;

x03000 + x03001 + x03002 + x03003 + x03004 + x03005 + x03006 + x03007 + x03008 + x03009 = 1;

x04000 + x04001 + x04002 + x04003 + x04004 + x04005 + x04006 + x04007 + x04008 + x04009 = 1;

x05000 + x05001 + x05002 + x05003 + x05004 + x05005 + x05006 + x05007 + x05008 + x05009 = 1;

x06000 + x06001 + x06002 + x06003 + x06004 + x06005 + x06006 + x06007 + x06008 + x06009 = 1;

x07000 + x07001 + x07002 + x07003 + x07004 + x07005 + x07006 + x07007 + x07008 + x07009 = 1;

x08000 + x08001 + x08002 + x08003 + x08004 + x08005 + x08006 + x08007 + x08008 + x08009 = 1;

x09000 + x09001 + x09002 + x09003 + x09004 + x09005 + x09006 + x09007 + x09008 + x09009 = 1;

bin x00000, x00001, x00002, x00003, x00004, x00005, x00006, x00007, x00008, x00009;

bin x01000, x01001, x01002, x01003, x01004, x01005, x01006, x01007, x01008, x01009;

bin x02000, x02001, x02002, x02003, x02004, x02005, x02006, x02007, x02008, x02009;

bin x03000, x03001, x03002, x03003, x03004, x03005, x03006, x03007, x03008, x03009;

bin x04000, x04001, x04002, x04003, x04004, x04005, x04006, x04007, x04008, x04009;

bin x05000, x05001, x05002, x05003, x05004, x05005, x05006, x05007, x05008, x05009;

bin x06000, x06001, x06002, x06003, x06004, x06005, x06006, x06007, x06008, x06009;

bin x07000, x07001, x07002, x07003, x07004, x07005, x07006, x07007, x07008, x07009;

bin x08000, x08001, x08002, x08003, x08004, x08005, x08006, x08007, x08008, x08009;

bin x09000, x09001, x09002, x09003, x09004, x09005, x09006, x09007, x09008, x09009;

/* ~~~~~~~~~~~~~~~~~~~~~~~~~~~~~~~~~~~~~~~~~~~~~~~~~~~~~~~~~~~~~~~~~~~~~~~~~~~~~~~~~~~~~~~~~ */
